Route #1: 12 4 26 34 35
Route #2: 21 27 41 43 11 3 28 6 2
Route #3: 33 29 36 19 31
Route #4: 39 24 44 14 9 32
Route #5: 22 5 30 37 1 42 8
Route #6: 13 38 17 23 25 15 10
Route #7: 40 20 16 7 18
Cost 1146
Time 0.066203
